NAME: tsp10_27
COMMENT: 10-tsp problem (Padberg/Rinaldi)
TYPE: TSP
DIMENSION: 10
EDGE_WEIGHT_TYPE : EUC_2D
NODE_COORD_SECTION
1.00 24.59 39.77
2.00 2.88 12.88
3.00 10.79 7.22
4.00 4.37 5.89
5.00 35.03 26.89
6.00 35.98 11.50
7.00 0.12 12.84
8.00 36.07 20.41
9.00 35.08 13.85
10.00 39.20 30.82
